(declare-fun ExpandObjSwitcher () Real)
(declare-fun Constructed_Argument_t () String)
(assert (not (= ExpandObjSwitcher 0.0)))
(assert (not (= ExpandObjSwitcher 1.0)))
(assert (not (= ExpandObjSwitcher 2.0)))
(assert (not (= ExpandObjSwitcher 3.0)))
(assert (not (= ExpandObjSwitcher 4.0)))
(assert (not (= ExpandObjSwitcher 5.0)))
(assert (not (= ExpandObjSwitcher 6.0)))
(assert (not (= ExpandObjSwitcher 7.0)))
(assert (not (= ExpandObjSwitcher 8.0)))
(assert (not (= ExpandObjSwitcher 9.0)))
(assert (not (= ExpandObjSwitcher 10.0)))
(assert (= ExpandObjSwitcher 11.0))
(assert (not (= Constructed_Argument_t "string")))
(assert (= Constructed_Argument_t "number"))
(check-sat)
